
%FILE DATA:	Soccer Computational Problem for MiniZinc Models	%
%AUTHOR:	Jack Wall	%
%CONTACT:  	116397063@umail.ucc.ie			%
%LAST UPDATE:	03/11/2020, 17:01:55						%
%DESCRIPTION: 	117 games played with 39 games left				%


n=13; %number of teams

%Games to play
games=[|12,9|5,12|6,12|9,3|7,3|11,1|5,2|8,2|7,6|9,7|5,8|11,5|9,11|11,8|9,8|13,1|13,11|2,6|9,13|5,10|8,5|11,4|8,3|10,11|1,2|12,5|4,1|12,1|13,8|3,7|1,6|9,5|13,12|8,10|1,5|1,12|6,7|2,1|12,8|];

%Initial points
iPoints=[26,16,26,30,19,22,24,26,22,24,28,18,26];

%POSITION CONSTRAINTS
% [|teamID, operator, position|...]
% operators index:
%  1 for =  operator
%  2 for >  operator
%  3 for >= operator
%  4 for <  operator
%  5 for <= operator
positionConstraints=[|11,5,1|1,1,2|7,3,3|13,5,4|4,1,5|];